30 61
29
6 18 24 10
2 12 7 33
10 7 9 35
4 23 0 0
4 1 20 27
7 7 20 28
11 4 0 23
6 5 5 6
2 7 28 3
6 11 19 45
10 19 9 42
11 5 0 27
4 2 13 0
7 5 4 1
4 2 20 25
7 12 4 11
7 13 0 32
3 6 27 29
6 10 19 35
9 16 0 45
1 4 4 7
4 10 24 0
6 24 11 2
9 9 11 26
2 1 28 2
8 5 19 56
3 5 27 56
7 25 17 0
5 21 25 35
